c graph2
p edge 15 84
e 1 10
e 2 7
e 3 14
e 4 15
e 5 1
e 6 9
e 7 3
e 8 3
e 9 11
e 10 12
e 11 4
e 12 5
e 13 5
e 14 8
e 15 13
e 13 3
e 13 2
e 5 10
e 9 14
e 3 12
e 6 11
e 9 7
e 14 4
e 9 8
e 1 2
e 11 10
e 6 2
e 13 9
e 7 8
e 4 10
e 1 3
e 4 6
e 5 15
e 1 12
e 11 8
e 15 8
e 4 3
e 13 8
e 13 14
e 6 5
e 4 8
e 2 9
e 12 8
e 9 15
e 14 7
e 13 4
e 1 8
e 1 9
e 15 1
e 3 2
e 12 9
e 15 2
e 1 7
e 11 5
e 8 5
e 10 9
e 11 3
e 7 12
e 11 2
e 1 4
e 12 13
e 5 9
e 14 2
e 3 9
e 14 15
e 15 10
e 13 1
e 2 4
e 6 12
e 15 11
e 13 10
e 6 10
e 11 1
e 7 15
e 7 5
e 6 1
e 8 6
e 7 11
e 4 7
e 3 15
e 12 2
e 7 6
e 13 11
e 5 14
